(set-info :status unknown)
(declare-const symbol_17 (_ BitVec 32))
(declare-const symbol_4 (_ BitVec 32))
(declare-const symbol_15 (_ BitVec 32))
(declare-const symbol_0 (_ BitVec 32))
(declare-const symbol_9 (_ BitVec 32))
(declare-const symbol_11 (_ BitVec 32))
(declare-const symbol_6 (_ BitVec 32))
(declare-const symbol_1 (_ BitVec 32))
(declare-const symbol_21 (_ BitVec 32))
(declare-const symbol_19 (_ BitVec 32))
(declare-const symbol_13 (_ BitVec 32))
(declare-const symbol_8 (_ BitVec 32))
(assert (not (not (= symbol_21 (_ bv7 32)))))
(assert (not (not (= symbol_19 (_ bv7 32)))))
(assert (not (not (= symbol_17 (_ bv7 32)))))
(assert (not (not (= symbol_15 (_ bv7 32)))))
(assert (not (not (= symbol_13 (_ bv7 32)))))
(assert (not (not (= symbol_11 (_ bv7 32)))))
(assert (not (not (= symbol_9 (_ bv7 32)))))
(assert (not (not (= symbol_8 (_ bv7 32)))))
(assert (not (not (= symbol_6 (_ bv7 32)))))
(assert (not (not (= symbol_4 (_ bv7 32)))))
(assert (not (not (= symbol_1 (_ bv7 32)))))
(assert (not (not (= symbol_0 (_ bv7 32)))))
(check-sat)